100 231
95 185 2
95 184 2
98 255 1
83 138 2
105 134 3
63 323 4
71 187 2
93 191 2
58 198 4
106 177 1
89 157 2
71 263 4
62 177 4
62 144 4
39 94 2
72 137 2
44 173 1
79 286 2
111 300 1
81 232 1
123 282 1
119 178 1
136 177 2
52 188 2
85 109 1
67 140 1
98 174 2
130 263 10
140 148 1
285 356 4
285 352 4
292 352 1
292 336 3
142 352 2
139 335 2
94 326 5
116 267 4
82 180 2
193 327 2
150 247 2
113 150 2
114 340 2
242 342 3
172 308 2
156 170 2
182 327 2
150 177 2
192 313 1
93 332 2
139 140 2
139 332 4
89 128 4
156 337 4
139 337 2
172 215 2
148 325 2
131 172 2
98 325 2
172 332 4
89 143 2
112 252 8
186 313 2
184 326 4
164 326 2
139 182 2
139 327 2
140 253 1
125 356 2
124 155 4
110 356 2
108 356 2
107 138 2
106 363 2
313 366 6
123 338 1
137 196 1
137 173 1
63 196 1
54 251 2
103 247 1
52 66 1
117 165 4
151 338 1
68 338 1
68 167 2
84 198 2
83 131 2
83 98 1
82 101 1
74 321 2
67 181 2
50 98 1
86 119 1
97 260 2
91 186 2
91 170 6
112 141 2
126 176 2
120 321 1
116 162 1
500 1000 
500 1000 
500 1000 
500 1000 
500 1000 
500 1000 
500 1000 
500 1000 
500 1000 
500 1000 
500 1000 
500 1000 
500 1000 
500 1000 
500 1000 
500 1000 
500 1000 
500 1000 
500 1000 
500 1000 
500 1000 
500 1000 
500 1000 
500 1000 
500 1000 
500 1000 
500 1000 
500 1000 
500 1000 
500 1000 
500 1000 
500 1000 
500 1000 
500 1000 
500 1000 
500 1000 
500 1000 
500 1000 
500 1000 
500 1000 
500 1000 
500 1000 
500 1000 
500 1000 
500 1000 
500 1000 
500 1000 
500 1000 
500 1000 
500 1000 
500 1000 
500 1000 
500 1000 
500 1000 
500 1000 
500 1000 
500 1000 
500 1000 
500 1000 
500 1000 
500 1000 
500 1000 
500 1000 
500 1000 
500 1000 
500 1000 
500 1000 
500 1000 
500 1000 
500 1000 
500 1000 
500 1000 
500 1000 
500 1000 
500 1000 
500 1000 
500 1000 
500 1000 
500 1000 
500 1000 
500 1000 
500 1000 
500 1000 
500 1000 
500 1000 
500 1000 
500 1000 
500 1000 
500 1000 
500 1000 
500 1000 
500 1000 
500 1000 
500 1000 
500 1000 
500 1000 
500 1000 
500 1000 
500 1000 
500 1000 
500 1000 
500 1000 
500 1000 
500 1000 
500 1000 
500 1000 
500 1000 
500 1000 
500 1000 
500 1000 
500 1000 
500 1000 
500 1000 
500 1000 
500 1000 
500 1000 
500 1000 
500 1000 
500 1000 
500 1000 
500 1000 
500 1000 
500 1000 
500 1000 
500 1000 
500 1000 
500 1000 
500 1000 
500 1000 
500 1000 
500 1000 
500 1000 
500 1000 
500 1000 
500 1000 
500 1000 
500 1000 
500 1000 
500 1000 
500 1000 
500 1000 
500 1000 
500 1000 
500 1000 
500 1000 
500 1000 
500 1000 
500 1000 
500 1000 
500 1000 
500 1000 
500 1000 
500 1000 
500 1000 
500 1000 
500 1000 
500 1000 
500 1000 
500 1000 
500 1000 
500 1000 
500 1000 
500 1000 
500 1000 
500 1000 
500 1000 
500 1000 
500 1000 
500 1000 
500 1000 
500 1000 
500 1000 
500 1000 
500 1000 
500 1000 
500 1000 
500 1000 
500 1000 
500 1000 
500 1000 
500 1000 
500 1000 
500 1000 
500 1000 
500 1000 
500 1000 
500 1000 
500 1000 
500 1000 
500 1000 
500 1000 
500 1000 
500 1000 
500 1000 
500 1000 
500 1000 
500 1000 
500 1000 
500 1000 
500 1000 
500 1000 
500 1000 
500 1000 
500 1000 
500 1000 
500 1000 
500 1000 
500 1000 
500 1000 
500 1000 
500 1000 
500 1000 
500 1000 
500 1000 
500 1000 
500 1000 
500 1000 
500 1000 
500 1000 
500 1000 
500 1000 
500 1000 
500 1000 
500 1000 
500 1000 
500 1000 
500 1000 
500 1000 
500 1000 
500 1000 
500 1000 
